NAME : 10_3_3_2_(07).dat
COMMENT : Henke, Speranza, Wäscher, 2015
TYPE : MCVRP
DIMENSION : 11
EDGE_WEIGHT_TYPE : DISTANCE_MATRIX
CAPACITY : 1000
VEHICLES : 3
PRODUCT TYPES : 3
COMPARTMENTS : 3
NODE_COORD_SECTION
1 50 50
2 8.11 8.75
3 58.73 27.66
4 91.93 57.76
5 17.46 42.03
6 34.01 82.43
7 2 39.04
8 57 24.51
9 44.83 45.75
10 36.2 18.62
11 58.42 45.87
DEMAND_SECTION
1 0 0 0
2 0 93 61
3 128 84 0
4 111 0 71
5 133 0 42
6 72 58 0
7 0 55 2
8 119 90 0
9 101 49 0
10 109 0 46
11 0 35 87
DEPOT_SECTION
1
EOF